c 
c MolecularSimulation 0.9.3
c Simulation written: Jan 13 2012 -- 15:17:57
c Test: Lipton
c Input: ./data/testCNF/SWEEP_R3_K3_N20_M48_S001.cnf
c 
s SATISFIABLE
v -1 -2 -3 -4 -5 6 7 -8 -9 10 -11 -12 -13 -14 15 -16 17 18 -19 20 0
c algorithmTime:  142
c solutionMemory: 2089
c mixCount:       214
c extractCount:   144
c appendCount:    40
c splitCount:     20
c spliceCount:    0
c purifyCount:    49
c 
